40
15

1
4
0 0
10 2
8 5
4 4

1
3
0 0
7 0
5 7

1
5
0 1
3 0
7 2
4 5
1 3

1
4
2 3
6 0
7 7
0 10

1
6
0 0
10 1
13 3
12 5
5 7
1 5

1
4
0 2
5 0
4 4
0 3

1
3
4 0
6 7
0 4

1
5
2 0
4 7
2 9
1 6
0 4

1
4
0 0
6 0
8 2
3 7

1
5
3 0
11 0
11 3
3 7
0 5

1
5
1 0
8 0
4 3
7 6
0 5

1
7
2 0
6 2
9 1
7 3
3 5
5 7
0 8

1
4
0 6
3 0
9 0
4 2

1
5
0 0
10 0
9 4
4 2
2 3

1
5
0 3
5 0
7 2
8 4
2 5